156
464
240
73
23
179
45
358
329
136
372
376
381
474
496
389
70
431
144
233
231
13
247
180
44
258
395
495
257
241
135
215
194
384
448
326
274
97
192
336
341
3
277
72
344
306
224
299
323
223
458
19
264
433
412
60
102
404
69
367
193
442
267
10
208
262
181
462
52
133
352
304
422
479
213
381
83
170
394
101
228
414
120
6
132
203
156
165
369
256
289
115
317
323
393
56
418
44
179
63
280
67
459
268
261
92
148
386
235
486
146
322
284
423
172
356
455
351
96
388
234
164
49
87
274
132
377
417
371
319
354
171
471
174
274
470
214
17
294
431
183
98
176
294
428
247
164
452
136
436
440
155
252
324
243
283
456
380
